c FILE /home/rafael/Documents/HappySet/MIHS/inputs/happygen/output/graph_scale_free_k5_p0.3_v100_20241127_083843.txt
c SOURCE This is a scale-free graph formed for the happy graph colouring problem.
c DESCRIPTION It was generated using the problem generator of Rhyd Lewis
c
c GRAPH STATS
c Seed                             = 122739928
c Number of Nodes                  = 100
c Number of colours k              = 5
c Number of pre-assignments        = 30
c Number of links per new node     = 5
c Density                          = 0.0979798
c 
c The degrees of nodes 1 to 100, respectively, are as follows 
c [39, 31, 27, 26, 25, 24, 24, 23, 21, 20, 20, 20, 20, 16, 16, 15, 15, 15, 14, 14, 13, 13, 12, 12, 10, 10, 
c  10, 10, 10, 10, 9, 9, 9, 9, 9, 9, 9, 8, 8, 8, 8, 8, 8, 8, 7, 7, 7, 7, 7, 7, 7, 
c  7, 7, 7, 6, 6, 6, 6, 6, 6, 6, 6, 6, 6, 6, 6, 6, 6, 6, 6, 5, 5, 5, 5, 5, 5, 
c  5, 5, 5, 5, 5, 5, 5, 5, 5, 5, 5, 5, 5, 5, 5, 5, 5, 5, 5, 5, 5, 5, 5, 5] 
c  
p edge 100 485 5
e 1 2
e 1 3
e 1 4
e 1 5
e 1 6
e 1 7
e 1 8
e 1 9
e 1 11
e 1 12
e 1 14
e 1 16
e 1 19
e 1 22
e 1 23
e 1 24
e 1 25
e 1 27
e 1 29
e 1 31
e 1 38
e 1 39
e 1 40
e 1 43
e 1 47
e 1 49
e 1 52
e 1 60
e 1 63
e 1 67
e 1 71
e 1 73
e 1 74
e 1 77
e 1 80
e 1 89
e 1 94
e 1 97
e 1 98
e 2 3
e 2 4
e 2 5
e 2 6
e 2 7
e 2 9
e 2 10
e 2 15
e 2 16
e 2 17
e 2 18
e 2 25
e 2 28
e 2 29
e 2 31
e 2 32
e 2 35
e 2 38
e 2 40
e 2 46
e 2 48
e 2 55
e 2 60
e 2 65
e 2 69
e 2 72
e 2 73
e 2 88
e 2 89
e 2 91
e 3 4
e 3 5
e 3 7
e 3 10
e 3 13
e 3 15
e 3 19
e 3 21
e 3 27
e 3 28
e 3 29
e 3 30
e 3 44
e 3 45
e 3 46
e 3 49
e 3 61
e 3 70
e 3 76
e 3 81
e 3 84
e 3 85
e 3 88
e 3 92
e 3 95
e 4 6
e 4 7
e 4 9
e 4 10
e 4 13
e 4 16
e 4 27
e 4 29
e 4 31
e 4 34
e 4 37
e 4 42
e 4 45
e 4 51
e 4 59
e 4 72
e 4 75
e 4 76
e 4 79
e 4 84
e 4 87
e 4 91
e 4 93
e 5 6
e 5 8
e 5 10
e 5 11
e 5 12
e 5 13
e 5 16
e 5 22
e 5 32
e 5 34
e 5 36
e 5 40
e 5 50
e 5 52
e 5 55
e 5 59
e 5 71
e 5 75
e 5 83
e 5 86
e 5 90
e 5 100
e 6 7
e 6 8
e 6 9
e 6 10
e 6 12
e 6 13
e 6 16
e 6 24
e 6 43
e 6 44
e 6 52
e 6 54
e 6 59
e 6 61
e 6 65
e 6 71
e 6 72
e 6 91
e 6 92
e 6 100
e 7 8
e 7 9
e 7 10
e 7 12
e 7 14
e 7 18
e 7 19
e 7 20
e 7 21
e 7 23
e 7 25
e 7 34
e 7 53
e 7 57
e 7 58
e 7 62
e 7 73
e 7 81
e 7 83
e 8 9
e 8 14
e 8 18
e 8 20
e 8 21
e 8 22
e 8 25
e 8 26
e 8 34
e 8 55
e 8 59
e 8 75
e 8 78
e 8 82
e 8 84
e 8 92
e 8 93
e 8 95
e 8 99
e 9 10
e 9 11
e 9 12
e 9 14
e 9 18
e 9 21
e 9 31
e 9 44
e 9 46
e 9 52
e 9 60
e 9 61
e 9 76
e 9 80
e 9 91
e 10 11
e 10 14
e 10 17
e 10 32
e 10 33
e 10 71
e 10 72
e 10 73
e 10 81
e 10 88
e 10 96
e 10 97
e 10 100
e 11 14
e 11 17
e 11 19
e 11 20
e 11 25
e 11 31
e 11 37
e 11 39
e 11 41
e 11 42
e 11 53
e 11 60
e 11 63
e 11 65
e 11 73
e 11 75
e 12 17
e 12 23
e 12 26
e 12 28
e 12 41
e 12 45
e 12 47
e 12 54
e 12 63
e 12 67
e 12 76
e 12 82
e 12 87
e 12 89
e 12 93
e 13 17
e 13 22
e 13 24
e 13 26
e 13 36
e 13 37
e 13 43
e 13 48
e 13 53
e 13 56
e 13 79
e 13 81
e 13 82
e 13 90
e 13 95
e 13 98
e 14 23
e 14 33
e 14 36
e 14 40
e 14 43
e 14 47
e 14 50
e 14 63
e 14 71
e 14 90
e 15 16
e 15 17
e 15 24
e 15 31
e 15 33
e 15 36
e 15 38
e 15 39
e 15 51
e 15 66
e 15 75
e 15 79
e 15 80
e 15 97
e 16 17
e 16 27
e 16 32
e 16 35
e 16 40
e 16 74
e 16 80
e 16 82
e 16 96
e 17 18
e 17 19
e 17 20
e 17 22
e 17 30
e 17 64
e 17 68
e 17 87
e 18 28
e 18 32
e 18 36
e 18 37
e 18 57
e 18 58
e 18 60
e 18 69
e 18 82
e 18 96
e 19 20
e 19 26
e 19 27
e 19 33
e 19 39
e 19 54
e 19 62
e 19 83
e 19 94
e 20 33
e 20 35
e 20 48
e 20 62
e 20 64
e 20 78
e 20 81
e 20 85
e 20 87
e 21 31
e 21 35
e 21 38
e 21 42
e 21 64
e 21 72
e 21 84
e 21 85
e 21 99
e 22 26
e 22 28
e 22 39
e 22 55
e 22 56
e 22 89
e 22 96
e 22 98
e 23 26
e 23 42
e 23 46
e 23 54
e 23 56
e 23 69
e 23 77
e 23 78
e 24 27
e 24 38
e 24 41
e 24 48
e 24 51
e 24 56
e 24 57
e 24 58
e 25 37
e 25 44
e 25 45
e 25 62
e 25 66
e 26 41
e 26 58
e 26 70
e 26 99
e 27 29
e 27 55
e 27 74
e 27 76
e 28 34
e 28 63
e 28 74
e 28 95
e 28 97
e 29 30
e 29 44
e 29 46
e 29 61
e 29 66
e 30 32
e 30 50
e 30 51
e 30 61
e 30 66
e 30 83
e 30 85
e 31 68
e 31 90
e 32 43
e 32 80
e 32 94
e 33 49
e 33 58
e 33 64
e 33 84
e 34 35
e 34 65
e 34 69
e 34 74
e 35 42
e 35 47
e 35 49
e 35 86
e 36 41
e 36 53
e 36 56
e 36 62
e 37 47
e 37 49
e 37 50
e 37 98
e 38 45
e 38 88
e 38 100
e 39 57
e 39 67
e 39 89
e 40 59
e 40 86
e 40 92
e 41 50
e 41 51
e 41 78
e 42 64
e 42 77
e 42 83
e 43 48
e 43 77
e 43 79
e 44 52
e 44 67
e 44 94
e 45 57
e 45 68
e 46 69
e 46 91
e 47 77
e 47 87
e 48 54
e 48 79
e 49 86
e 49 94
e 50 70
e 50 85
e 51 65
e 51 100
e 52 67
e 52 68
e 53 65
e 53 92
e 53 97
e 54 96
e 54 99
e 55 68
e 56 86
e 57 66
e 58 78
e 59 70
e 60 61
e 62 95
e 63 93
e 64 90
e 66 99
e 67 88
e 68 93
e 69 70
e 70 98
n 7 2
n 17 1
n 23 2
n 24 2
n 26 2
n 29 1
n 31 1
n 33 2
n 35 5
n 36 3
n 40 3
n 43 2
n 44 1
n 47 5
n 48 2
n 55 5
n 57 2
n 58 2
n 59 3
n 63 4
n 65 3
n 72 4
n 75 5
n 76 1
n 78 2
n 79 2
n 83 2
n 85 3
n 88 5
n 91 3
